!File created by the GAMESS Input Deck Generator Plugin for Avogadro
 $BASIS GBASIS=STO NGAUSS=3 $END
 $CONTRL SCFTYP=RHF RUNTYP=IRC $END
 $STATPT HESS=READ ihrep=5 $END
 $irc npoint=1000 saddle=.t. tsengy==.t. forwrs=.f. OPTTOL=0.0005 stride=0.1 $end

 $DATA 
Title
C1
C     6.0    -3.88998485    -0.22537115    -0.23956929
N     7.0    -2.66725445     0.41976401    -0.01613721
H     1.0    -1.86354840    -0.06886484    -0.44757867
Cl    17.0    -5.26587915     0.63814306     0.47002229
H     1.0    -3.86983061    -1.28076398     0.03050900
H     1.0    -2.65835786     1.42301142    -0.27000600
H     1.0    -1.84503543     0.66438949     1.79054868
 $END


 $HESS
ENERGY IS     -547.7148256117 E(NUC) IS      101.1039751226
 1  1 6.50478100E-01 4.43162378E-02-7.64781119E-02-3.74936743E-01-1.32474432E-01
 1  2-9.12619304E-03-2.52768039E-02-1.47461195E-02-2.33753508E-02-1.87908120E-01
 1  3 9.96600492E-02 1.09683804E-01-6.48008588E-02 4.47275850E-03 1.81718444E-02
 1  4 7.63630577E-03 3.40117279E-04-9.22039038E-03-5.19207643E-03-1.56868676E-03
 1  5-9.65534094E-03
 2  1 4.43162378E-02 7.55858923E-01-4.58583220E-02-1.32631805E-01-2.21160031E-01
 2  2-6.01076619E-04 2.03930664E-02 1.58733235E-02-1.00817461E-03 9.80695248E-02
 2  3-1.11744926E-01-5.92118257E-02 2.34494107E-02-4.29337760E-01 1.41448800E-01
 2  4-4.52411595E-02-9.91805640E-03-1.96979229E-02-8.35480673E-03 4.28450932E-04
 2  5-1.50712566E-02
 3  1-7.64781119E-02-4.58583220E-02 1.18443044E-01 1.73328169E-02-7.84765069E-04
 3  2-4.84163608E-03 1.41811384E-02 9.47172201E-03-3.78531191E-03 5.64426076E-02
 3  3-3.64787832E-02-4.34946548E-02 9.36188388E-04 7.87065765E-02-4.10081437E-02
 3  4 8.38766544E-03 3.93414043E-03-6.18373408E-03-2.08021924E-02-8.99109104E-03
 3  5-1.91286962E-02
 4  1-3.74936743E-01-1.32631805E-01 1.73328169E-02 8.85324071E-01-3.64318939E-02
 4  2-2.40489172E-01-3.62050193E-01 1.68342657E-01 2.05411032E-01-4.05875409E-02
 4  3-7.41722925E-03-1.46070964E-02-4.23793652E-04-2.34420467E-03-2.52046475E-02
 4  4-8.82876587E-02 7.46961378E-03 1.92950824E-02-1.90380589E-02 3.01321743E-03
 4  5 3.82617499E-02
 5  1-1.32474432E-01-2.21160031E-01-7.84765069E-04-3.64318939E-02 1.00253970E+00
 5  2-2.58665288E-02 1.79913394E-01-2.03101933E-01-1.09939758E-01 2.68460285E-02
 5  3 7.66859274E-03-6.69039469E-03-4.66447913E-02-1.50205086E-02-2.30091907E-02
 5  4 4.23239538E-03-5.35990085E-01 1.52913695E-01 4.55920818E-03-3.49355476E-02
 5  5 1.33767492E-02
 6  1-9.12619304E-03-6.01076619E-04-4.84163608E-03-2.40489172E-01-2.58665288E-02
 6  2 1.61758075E-01 1.56991238E-01-8.74097934E-02-1.14569173E-01 3.05416750E-02
 6  3-1.59794022E-03-1.30884158E-02 9.36511274E-03 3.01473419E-03-1.42527530E-02
 6  4 1.28415084E-02 9.94934628E-02-6.07994364E-02 3.98759247E-02 1.29674991E-02
 6  5 4.57933580E-02
 7  1-2.52768039E-02 2.03930664E-02 1.41811384E-02-3.62050193E-01 1.79913394E-01
 7  2 1.56991238E-01 3.77253967E-01-1.83336246E-01-1.68667062E-01-2.36113340E-03
 7  3-3.12351536E-03-2.13327062E-04 2.38488180E-03-4.19043945E-04-2.66865439E-04
 7  4 6.26663852E-03-1.15160154E-02-9.29352642E-04 3.78269025E-03-1.91163500E-03
 7  5-1.09579264E-03
 8  1-1.47461195E-02 1.58733235E-02 9.47172201E-03 1.68342657E-01-2.03101933E-01
 8  2-8.74097934E-02-1.83336246E-01 1.92248845E-01 1.02546301E-01-5.27872150E-03
 8  3 5.34471051E-04 5.40796056E-05 4.68309426E-04 9.31877912E-04 1.28397204E-03
 8  4 3.56410671E-02-6.59780196E-03-2.58349483E-02-1.09103040E-03 1.11231826E-04
 8  5-1.11281414E-04
 9  1-2.33753508E-02-1.00817461E-03-3.78531191E-03 2.05411032E-01-1.09939758E-01
 9  2-1.14569173E-01-1.68667062E-01 1.02546301E-01 1.21134840E-01 1.34808656E-04
 9  3-8.94980222E-04 3.87130834E-03-1.67920980E-04 1.84262682E-04-6.44982555E-04
 9  4-1.58652429E-02 1.31969972E-02 1.38231024E-03 2.52983496E-03-4.08467569E-03
 9  5-7.38900585E-03
10  1-1.87908120E-01 9.80695248E-02 5.64426076E-02-4.05875409E-02 2.68460285E-02
10  2 3.05416750E-02-2.36113340E-03-5.27872150E-03 1.34808656E-04 2.34291291E-01
10  3-1.19273721E-01-9.43351465E-02-6.52572587E-03-1.08535186E-03 1.18474939E-02
10  4 1.44922339E-03 1.49196422E-03-1.42495851E-03 1.64209737E-03-7.69942623E-04
10  5-3.20622117E-03
11  1 9.96600492E-02-1.11744926E-01-3.64787832E-02-7.41722925E-03 7.66859274E-03
11  2-1.59794022E-03-3.12351536E-03 5.34471051E-04-8.94980222E-04-1.19273721E-01
11  3 1.05787975E-01 5.75374728E-02 2.69764257E-02-3.59643119E-03-2.30061039E-02
11  4 1.50085389E-03 5.80517717E-04 8.38228314E-04 1.67674494E-03 7.69657629E-04
11  5 3.60187527E-03
12  1 1.09683804E-01-5.92118257E-02-4.34946548E-02-1.46070964E-02-6.69039469E-03
12  2-1.30884158E-02-2.13327062E-04 5.40796056E-05 3.87130834E-03-9.43351465E-02
12  3 5.75374728E-02 5.09213912E-02-3.91992144E-03 6.69122632E-03-4.23220618E-03
12  4 6.10387617E-04-6.03153807E-04-3.66095203E-04 2.78105582E-03 2.22277549E-03
12  5 6.38785132E-03
13  1-6.48008588E-02 2.34494107E-02 9.36188388E-04-4.23793652E-04-4.66447913E-02
13  2 9.36511274E-03 2.38488180E-03 4.68309426E-04-1.67920980E-04-6.52572587E-03
13  3 2.69764257E-02-3.91992144E-03 7.48830828E-02-2.71108290E-03-6.58970362E-03
13  4-6.90672061E-03-2.08156371E-03-1.13775861E-03 1.38904903E-03 5.43313909E-04
13  5 1.51378429E-03
14  1 4.47275850E-03-4.29337760E-01 7.87065765E-02-2.34420467E-03-1.50205086E-02
14  2 3.01473419E-03-4.19043945E-04 9.31877912E-04 1.84262682E-04-1.08535186E-03
14  3-3.59643119E-03 6.69122632E-03-2.71108290E-03 4.45148416E-01-9.58382832E-02
14  4-1.81341604E-03 5.03351386E-04 2.08497490E-03 3.90038760E-03 1.37105126E-03
14  5 5.15665890E-03
15  1 1.81718444E-02 1.41448800E-01-4.10081437E-02-2.52046475E-02-2.30091907E-02
15  2-1.42527530E-02-2.66865439E-04 1.28397204E-03-6.44982555E-04 1.18474939E-02
15  3-2.30061039E-02-4.23220618E-03-6.58970362E-03-9.58382832E-02 4.87693622E-02
15  4-6.65441669E-04 2.42975999E-04 5.79610926E-03 2.70723599E-03-1.12203969E-03
15  5 5.57253424E-03
16  1 7.63630577E-03-4.52411595E-02 8.38766544E-03-8.82876587E-02 4.23239538E-03
16  2 1.28415084E-02 6.26663852E-03 3.56410671E-02-1.58652429E-02 1.44922339E-03
16  3 1.50085389E-03 6.10387617E-04-6.90672061E-03-1.81341604E-03-6.65441669E-04
16  4 8.01001878E-02 3.12778094E-03-4.10441187E-03-2.57950383E-04 2.55239389E-03
16  5-1.20444207E-03
17  1 3.40117279E-04-9.91805640E-03 3.93414043E-03 7.46961378E-03-5.35990085E-01
17  2 9.94934628E-02-1.15160154E-02-6.59780196E-03 1.31969972E-02 1.49196422E-03
17  3 5.80517717E-04-6.03153807E-04-2.08156371E-03 5.03351386E-04 2.42975999E-04
17  4 3.12778094E-03 5.47688997E-01-1.17247835E-01 1.16812813E-03 3.73310566E-03
17  5 9.83435573E-04
18  1-9.22039038E-03-1.96979229E-02-6.18373408E-03 1.92950824E-02 1.52913695E-01
18  2-6.07994364E-02-9.29352642E-04-2.58349483E-02 1.38231024E-03-1.42495851E-03
18  3 8.38228314E-04-3.66095203E-04-1.13775861E-03 2.08497490E-03 5.79610926E-03
18  4-4.10441187E-03-1.17247835E-01 6.62610882E-02-2.47823650E-03 6.94377479E-03
18  5-6.09012139E-03
19  1-5.19207643E-03-8.35480673E-03-2.08021924E-02-1.90380589E-02 4.55920818E-03
19  2 3.98759247E-02 3.78269025E-03-1.09103040E-03 2.52983496E-03 1.64209737E-03
19  3 1.67674494E-03 2.78105582E-03 1.38904903E-03 3.90038760E-03 2.70723599E-03
19  4-2.57950383E-04 1.16812813E-03-2.47823650E-03 1.76742929E-02-1.85863421E-03
19  5-2.46136886E-02
20  1-1.56868676E-03 4.28450932E-04-8.99109104E-03 3.01321743E-03-3.49355476E-02
20  2 1.29674991E-02-1.91163500E-03 1.11231826E-04-4.08467569E-03-7.69942623E-04
20  3 7.69657629E-04 2.22277549E-03 5.43313909E-04 1.37105126E-03-1.12203969E-03
20  4 2.55239389E-03 3.73310566E-03 6.94377479E-03-1.85863421E-03 2.85220464E-02
20  5-7.93626558E-03
21  1-9.65534094E-03-1.50712566E-02-1.91286962E-02 3.82617499E-02 1.33767492E-02
21  2 4.57933580E-02-1.09579264E-03-1.11281414E-04-7.38900585E-03-3.20622117E-03
21  3 3.60187527E-03 6.38785132E-03 1.51378429E-03 5.15665890E-03 5.57253424E-03
21  4-1.20444207E-03 9.83435573E-04-6.09012139E-03-2.46136886E-02-7.93626558E-03
21  5-2.51460122E-02
 $END